10
20
1020101
0
0
98 85 86 19 61 9 52 81 26 33 32 47 34 7 38 1 62 55 93 18 
1
0
83 16 53 98 53 65 31 79 35 21 97 9 64 72 50 12 56 79 85 10 
2
0
74 58 66 56 60 93 94 42 66 1 63 54 89 94 23 15 77 41 19 26 
3
0
46 5 20 60 5 74 82 9 94 2 27 20 97 95 56 52 87 90 98 29 
4
0
39 27 69 86 75 56 60 84 76 56 90 39 53 96 51 91 55 2 79 74 
5
0
49 69 57 7 94 17 11 65 87 63 64 45 67 1 31 10 4 71 10 56 
6
0
26 16 48 24 21 87 28 59 36 1 88 1 97 33 49 20 44 7 85 88 
7
0
58 92 39 10 63 8 71 72 50 84 17 4 25 56 71 59 79 20 13 38 
8
0
94 69 36 23 71 10 26 46 98 82 81 35 10 66 40 49 21 33 37 30 
9
0
16 83 23 34 71 73 51 43 40 46 7 98 40 58 18 57 74 42 97 63 
